
Gurobi 12.0.2 (win64) logging started Thu Oct 23 20:33:17 2025

Set parameter LogFile to value "C:\Ioana\_uni\honours\slp\algorithm\Main_files\results\fixing paracetamol degradation\Task_004_Sample006_irr_gurobi.log"
Gurobi Optimizer version 12.0.2 build v12.0.2rc0 (win64 - Windows 11.0 (26100.2))

CPU model: Intel(R) Core(TM) Ultra 5 125H, instruction set [SSE2|AVX|AVX2]
Thread count: 14 physical cores, 18 logical processors, using up to 18 threads

Non-default parameters:
TimeLimit  2200

Optimize a model with 47236 rows, 34508 columns and 146718 nonzeros
Model fingerprint: 0xee108565
Variable types: 17259 continuous, 17249 integer (17249 binary)
Coefficient statistics:
  Matrix range     [1e-04, 8e+04]
  Objective range  [1e-04, 9e-01]
  Bounds range     [1e+00, 1e+03]
  RHS range        [1e+00, 1e+00]
Found heuristic solution: objective 0.9259834
Presolve removed 47236 rows and 34508 columns
Presolve time: 0.20s
Presolve: All rows and columns removed

Explored 0 nodes (0 simplex iterations) in 0.21 seconds (0.26 work units)
Thread count was 1 (of 18 available processors)

Solution count 1: 0.925983 

Optimal solution found (tolerance 1.00e-04)
Best objective 9.259833832868e-01, best bound 9.259833832868e-01, gap 0.0000%
